SDVRP instances/custom_instances/p01_1_splitx10_0.vrp
NAME:p01_1_splitx10_
BEST_KNOWN: 0
COMMENT: 0
DIMENSION: 233
CAPACITY: 1600
EDGE_WEIGHT_FORMAT: FUNCTION
EDGE_WEIGHT_TYPE: EXACT_2D
NODE_COORD_SECTION
1 0.00000 0.00000
2 -6 -23
3 -6 -23
4 -6 -23
5 -6 -23
6 38 38
7 38 38
8 38 38
9 38 38
10 38 38
11 38 38
12 -1 33
13 -1 33
14 -1 33
15 -1 33
16 -1 33
17 -1 33
18 -14 -25
19 -14 -25
20 -14 -25
21 -14 -25
22 43 45
23 43 45
24 43 45
25 43 45
26 31 -31
27 31 -31
28 31 -31
29 31 -31
30 26 23
31 26 23
32 26 23
33 26 23
34 -15 -27
35 -15 -27
36 -15 -27
37 -15 -27
38 -15 -27
39 4 -46
40 4 -46
41 4 -46
42 4 -46
43 4 -46
44 4 -46
45 18 -17
46 18 -17
47 18 -17
48 18 -17
49 18 -17
50 18 -17
51 1 -22
52 1 -22
53 1 -22
54 -1 -17
55 -1 -17
56 -1 -17
57 -1 -17
58 -1 -17
59 -1 -17
60 44 -45
61 44 -45
62 44 -45
63 44 -45
64 44 -45
65 44 -45
66 44 -45
67 14 32
68 14 32
69 14 32
70 14 32
71 14 32
72 14 32
73 -47 39
74 -47 39
75 -47 39
76 -1 -6
77 -1 -6
78 -1 -6
79 21 43
80 21 43
81 21 43
82 21 43
83 21 43
84 21 43
85 21 43
86 -9 28
87 -9 28
88 -9 28
89 37 -31
90 37 -31
91 37 -31
92 37 -31
93 37 -31
94 24 -27
95 24 -27
96 24 -27
97 38 9
98 38 9
99 38 9
100 19 31
101 19 31
102 19 31
103 19 31
104 19 31
105 19 31
106 19 31
107 19 31
108 -42 -14
109 -42 -14
110 -42 -14
111 -42 -14
112 -42 -14
113 -42 -14
114 -5 49
115 -5 49
116 -5 49
117 -5 49
118 2 18
119 2 18
120 2 18
121 2 18
122 2 18
123 2 18
124 -22 41
125 -22 41
126 -22 41
127 -46 12
128 -46 12
129 -46 12
130 -46 12
131 -46 12
132 -41 -26
133 -41 -26
134 -41 -26
135 -41 -26
136 -43 -9
137 -43 -9
138 -43 -9
139 -43 -9
140 -43 -9
141 -24 43
142 -24 43
143 -24 43
144 -37 8
145 -37 8
146 -37 8
147 -37 8
148 39 -17
149 39 -17
150 39 -17
151 -28 -49
152 -28 -49
153 -28 -49
154 -28 -49
155 -28 -49
156 -28 -49
157 -28 -49
158 -10 34
159 -10 34
160 -10 34
161 -10 34
162 -10 34
163 -10 34
164 24 46
165 24 46
166 24 46
167 17 19
168 17 19
169 17 19
170 17 19
171 -11 47
172 -11 47
173 -11 47
174 -11 47
175 -11 47
176 50 45
177 50 45
178 50 45
179 50 45
180 50 45
181 50 45
182 45 47
183 45 47
184 45 47
185 45 47
186 45 47
187 -25 -29
188 -47 29
189 -47 29
190 -47 29
191 -47 29
192 -47 29
193 2 -36
194 2 -36
195 2 -36
196 2 -36
197 36 -25
198 36 -25
199 36 -25
200 36 -25
201 36 -25
202 36 -25
203 6 11
204 6 11
205 6 11
206 6 11
207 6 11
208 6 11
209 6 11
210 -50 -47
211 -50 -47
212 -50 -47
213 -50 -47
214 27 5
215 27 5
216 27 5
217 27 5
218 27 5
219 -49 -37
220 -49 -37
221 -49 -37
222 -49 -37
223 -49 -37
224 -49 -37
225 22 19
226 22 19
227 22 19
228 -44 0
229 -44 0
230 49 -3
231 49 -3
232 49 -3
233 49 -3
DEMAND_SECTION
1 0
2 320
3 320
4 80
5 10
6 320
7 80
8 16
9 16
10 16
11 12
12 320
13 80
14 16
15 16
16 16
17 2
18 320
19 16
20 16
21 8
22 320
23 320
24 16
25 14
26 160
27 16
28 16
29 8
30 320
31 160
32 16
33 4
34 320
35 80
36 16
37 16
38 8
39 320
40 320
41 16
42 16
43 16
44 2
45 320
46 80
47 16
48 16
49 16
50 12
51 160
52 80
53 10
54 320
55 80
56 16
57 16
58 16
59 12
60 320
61 320
62 80
63 16
64 16
65 16
66 2
67 320
68 320
69 16
70 16
71 16
72 12
73 320
74 16
75 14
76 320
77 80
78 10
79 320
80 160
81 80
82 16
83 16
84 16
85 12
86 160
87 80
88 10
89 320
90 320
91 16
92 16
93 8
94 320
95 16
96 4
97 320
98 320
99 160
100 320
101 320
102 80
103 16
104 16
105 16
106 16
107 6
108 320
109 16
110 16
111 16
112 16
113 6
114 160
115 16
116 16
117 8
118 320
119 160
120 16
121 16
122 16
123 2
124 320
125 320
126 80
127 320
128 320
129 80
130 16
131 14
132 320
133 320
134 16
135 14
136 320
137 80
138 16
139 16
140 8
141 320
142 80
143 10
144 320
145 160
146 16
147 14
148 320
149 160
150 80
151 320
152 160
153 16
154 16
155 16
156 16
157 6
158 320
159 80
160 16
161 16
162 16
163 2
164 320
165 160
166 10
167 320
168 320
169 16
170 14
171 160
172 16
173 16
174 16
175 12
176 160
177 80
178 16
179 16
180 16
181 2
182 320
183 160
184 80
185 16
186 4
187 320
188 320
189 160
190 16
191 16
192 8
193 320
194 80
195 16
196 14
197 320
198 160
199 16
200 16
201 16
202 2
203 160
204 80
205 16
206 16
207 16
208 16
209 6
210 320
211 160
212 16
213 14
214 160
215 80
216 16
217 16
218 8
219 160
220 80
221 16
222 16
223 16
224 12
225 320
226 160
227 80
228 160
229 80
230 320
231 320
232 16
233 4
DEPOT_SECTION
1
-1
EOF