SDVRP instances/custom_instances/p01_1_splitx10_0.sol
232 -4 2 1 3 51 50 52 58 53 55 56 57 54 -6 5 164 163 165 78 83 79 81 82 80 84 68 70 71 69 -9 10 7 8 24 22 21 23 181 185 183 182 184 180 175 178 179 177 176 -27 28 26 65 62 59 64 61 63 60 91 90 88 92 89 -47 46 48 49 45 44 38 40 39 42 43 41 192 194 193 195 -67 66 13 16 12 14 15 11 118 117 120 122 -76 77 75 17 19 20 18 34 36 35 37 33 186 -85 87 86 160 159 162 161 158 157 73 74 72 191 188 189 187 190 -95 94 93 25 196 200 198 197 201 199 148 149 147 -104 100 103 102 99 105 101 106 29 32 30 31 213 216 -121 119 114 116 113 115 173 172 170 171 174 142 140 141 125 123 124 -133 134 132 131 111 109 110 107 108 112 138 139 135 137 136 -145 143 144 146 128 130 127 126 129 227 228 -156 152 150 153 155 154 151 211 212 209 210 219 218 221 223 222 220 -204 206 208 207 203 205 202 167 168 166 169 224 225 226 -217 215 214 97 98 96 230 231 229 232 0 





OBJ=
1687.429
BEST_KNOWN=
0.000